
Gurobi 7.5.1 (linux64, Java) logging started Dom 22 Out 2017 12:33:47 BRT

Academic license - for non-commercial use only

Gurobi 7.5.1 (linux64, Java) logging started Ter 24 Out 2017 13:36:26 BRT

Academic license - for non-commercial use only

Gurobi 7.5.1 (linux64, Java) logging started Ter 24 Out 2017 13:37:37 BRT

Academic license - for non-commercial use only

Gurobi 7.5.1 (linux64, Java) logging started Ter 24 Out 2017 13:49:27 BRT

Academic license - for non-commercial use only

Gurobi 7.5.1 (linux64, Java) logging started Ter 24 Out 2017 13:50:11 BRT

Academic license - for non-commercial use only

Gurobi 7.5.1 (linux64, Java) logging started Ter 24 Out 2017 13:50:56 BRT

Academic license - for non-commercial use only

Gurobi 7.5.1 (linux64, Java) logging started Ter 24 Out 2017 13:52:02 BRT

Academic license - for non-commercial use only

Gurobi 7.5.1 (linux64, Java) logging started Ter 24 Out 2017 13:52:41 BRT

Academic license - for non-commercial use only

Gurobi 7.5.1 (linux64, Java) logging started Ter 24 Out 2017 13:56:58 BRT

Academic license - for non-commercial use only

Gurobi 7.5.1 (linux64, Java) logging started Qui 26 Out 2017 12:03:38 BRT

Academic license - for non-commercial use only

Gurobi 7.5.1 (linux64, Java) logging started Qui 26 Out 2017 12:05:08 BRT

Academic license - for non-commercial use only
